50
19768

564 654
931 149
143 575
544 860
44 974
203 514
286 937
63 911
510 134
636 398
532 583
125 795
120 81
674 832
107 206
907 614
167 501
136 902
72 45
125 800
108 268
6 407
228 677
461 770
82 606
383 777
588 814
227 407
430 603
770 447
914 735
839 867
853 536
656 459
656 737
130 30
813 139
860 472
582 344
452 108
113 893
786 759
506 958
66 807
694 286
416 238
946 63
440 433
580 656
271 412
